Gurobi 12.0.3:   lim:time = 14400

  mip:bestbound = 1

Set parameter LogToConsole to value 1

  tech:outlev = 1

Set parameter Cuts to value 3

  cut:cuts = 3

Set parameter Presolve to value 2

  pre:solve = 2

Set parameter MIPFocus to value 2

  mip:focus = 2

Set parameter Symmetry to value 2

  mip:symmetry = 2

Set parameter InfUnbdInfo to value 1

Gurobi Optimizer version 12.0.3 build v12.0.3rc0 (win64 - Windows 10.0 (19045.2))



CPU model: Intel(R) Core(TM) i7-10700 CPU @ 2.90GHz, instruction set [SSE2|AVX|AVX2]

Thread count: 8 physical cores, 16 logical processors, using up to 16 threads



Non-default parameters:

TimeLimit  14400

MIPFocus  2

Symmetry  2

Cuts  3

InfUnbdInfo  1

Presolve  2



Optimize a model with 367 rows, 645 columns and 3562 nonzeros

Model fingerprint: 0xba7134ce

Model has 2 quadratic objective terms

Model has 6 quadratic constraints

Variable types: 34 continuous, 611 integer (0 binary)

Coefficient statistics:

  Matrix range     [1e+00, 1e+05]

  QMatrix range    [1e+00, 1e+00]

  QLMatrix range   [1e+00, 1e+01]

  Objective range  [6e+00, 1e+02]

  QObjective range [2e+00, 2e+00]

  Bounds range     [1e+00, 1e+02]

  RHS range        [1e+00, 1e+05]

  QRHS range       [1e+02, 1e+02]

Presolve removed 40 rows and 74 columns

Presolve time: 0.06s

Presolved: 741 rows, 976 columns, 5531 nonzeros

Variable types: 101 continuous, 875 integer (742 binary)

Found heuristic solution: objective 392.2200000

Root relaxation presolve removed 32 rows and 2 columns

Root relaxation presolved: 512 rows, 790 columns, 8068 nonzeros





Root relaxation: objective 5.898619e+01, 74 iterations, 0.02 seconds (0.01 work units)



    Nodes    |    Current Node    |     Objective Bounds      |     Work

 Expl Unexpl |  Obj  Depth IntInf | Incumbent    BestBd   Gap | It/Node Time



     0     0   58.98619    0   28  392.22000   58.98619  85.0%     -    0s

H    0     0                     331.5500000   58.98619  82.2%     -    0s

H    0     0                     319.6800000   58.98619  81.5%     -    0s

     0     0  160.47871    0   52  319.68000  160.47871  49.8%     -    0s

     0     0  160.47871    0   49  319.68000  160.47871  49.8%     -    0s

     0     0  160.47871    0   38  319.68000  160.47871  49.8%     -    0s

     0     0  160.47871    0   47  319.68000  160.47871  49.8%     -    0s

     0     0  164.74130    0   43  319.68000  164.74130  48.5%     -    0s

     0     0  166.73000    0   32  319.68000  166.73000  47.8%     -    0s

     0     0  166.73000    0   28  319.68000  166.73000  47.8%     -    0s

     0     0  166.73634    0   28  319.68000  166.73634  47.8%     -    0s

     0     0  166.73634    0   28  319.68000  166.73634  47.8%     -    0s

H    0     0                     311.4200000  166.73634  46.5%     -    0s

H    0     0                     310.4700000  166.73634  46.3%     -    0s

     0     0  173.57342    0   41  310.47000  173.57342  44.1%     -    0s

     0     0  174.25009    0   43  310.47000  174.25009  43.9%     -    0s

     0     0  191.45571    0   38  310.47000  191.45571  38.3%     -    0s

     0     0  191.45571    0   38  310.47000  191.45571  38.3%     -    0s

     0     2  191.45571    0   26  310.47000  191.45571  38.3%     -    0s

H 2393  1190                     303.6800000  200.85977  33.9%  12.9    2s

H 2442  1160                     298.8800000  210.30227  29.6%  12.6    5s

 16754  1762  293.07240   26   32  298.88000  246.10809  17.7%  16.3   10s



Cutting planes:

  Learned: 11

  Gomory: 21

  Lift-and-project: 19

  Cover: 20

  Implied bound: 74

  Projected implied bound: 5

  Clique: 22

  MIR: 33

  Mixing: 6

  StrongCG: 7

  Flow cover: 253

  GUB cover: 1

  Inf proof: 23

  Zero half: 128

  RLT: 29

  Relax-and-lift: 29



Explored 26341 nodes (412439 simplex iterations) in 11.86 seconds (9.30 work units)

Thread count was 16 (of 16 available processors)



Solution count 7: 298.88 303.68 310.47 ... 392.22



Optimal solution found (tolerance 1.00e-04)

Best objective 2.988800000000e+02, best bound 2.988800000000e+02, gap 0.0000%



AMPL MP initial flat model has 645 variables (0 integer, 611 binary);

Objectives: 1 quadratic; 

Constraints:  367 linear; 6 quadratic;



AMPL MP final model has 645 variables (0 integer, 611 binary);

Objectives: 1 quadratic; 

Constraints:  367 linear; 6 quadratic;





-----RESULTS INFO-----
running_time:  11.984
TC.best_bound:  298.88
TC:  298.88
MIP Gap (%):  0
=== Vehicle Routes ===
Vehicle 1: 0 → 11
Vehicle 1: 1 → 18
Vehicle 1: 2 → 1
Vehicle 1: 11 → 2
Vehicle 2: 0 → 14
Vehicle 2: 14 → 16
Vehicle 2: 16 → 18
Vehicle 3: 0 → 18
Vehicle 4: 0 → 18

=== Full Vehicle Routes ===
Vehicle 1: 0 → 11 → 2 → 1 → 0 (39<100)
Vehicle 2: 0 → 14 → 16 → 0 (99<100)
Vehicle 3: 0 → 0 (0<100)
Vehicle 4: 0 → 0 (0<100)
Arc used by MRT line: y variables:
Customer assigment to PL: u variables:
3 16
4 14
5 14
6 16
7 16
8 11
9 14
10 16
Node is served by regular vehicle: g variables:
1
2
11
14
16
Customer assigment to Home delivery: gm variables:
1
2
Node total demands: ntd variables:
1 13 1
2 12 1
7 0 0
8 0 0
9 0 0
10 0 0
17 0 0
11 14 1
12 0 0
13 0 0
14 45 1
15 0 0
16 54 1
Customer's demand delivered to PL: l variables:
3
4
5
6
7
8
9
10
Lockers load <= capacity:
0 <= 79
14 <= 70
0 <= 82
0 <= 88
45 <= 75
0 <= 94
54 <= 95
